(declare-const delta_k Int)
(declare-const delta_acc Real)
(assert (exists
         ((uninterp?1 Int) (|acc'?2| Real) (|k'?3| Int) (acc?4 Real)
            (k?5 Int) (j?6 Int))
         (and (<= (- k?5) 0) (<= (- j?6) 0) (< (+ (- j?6) k?5 1) 0)
                (= (+ (- uninterp?1) (- acc?4) |acc'?2|) 0)
                (= (+ |k'?3| (- k?5) -1) 0) (= delta_k (+ |k'?3| (- k?5)))
                (= delta_acc (+ |acc'?2| (- acc?4))))))
(check-sat)
